
--- Job LAB2_MOEG.gms Start 03/20/22 14:19:45 38.1.0 a1a3b545 WEX-WEI x86 64bit/MS Windows
--- Applying:
    C:\GAMS\38\gmsprmNT.txt
--- GAMS Parameters defined
    Input C:\Users\sebss\Escritorio\Programacion\GAMS\Lab2\LAB2_MOEG.gms
    PageSize 0
    ScrDir C:\Users\sebss\Escritorio\Programacion\GAMS\Lab2\225a\
    SysDir C:\GAMS\38\
    LogOption 3
    ErrMsg 1
    ErrorLog 99
    IDE 1
    LstTitleLeftAligned 1
Licensee: GAMS Demo license for Sebastian Ramiro EntrerriG220207|0002CO-GEN
          Universidad Rey Juan Carlos, Spain                       DL059758
          C:\Users\sebss\OneDrive\Documentos\GAMS\gamslice.txt
          sr.entrerrios.2020@alumnos.urjc.es, Sebastian Ramiro Entrerrios G
          Demo license for demonstration and instructional purposes only
Processor information: 1 socket(s), 6 core(s), and 12 thread(s) available
GAMS 38.1.0   Copyright (C) 1987-2022 GAMS Development. All rights reserved
--- Starting compilation
--- LAB2_MOEG.gms(96) 3 Mb
--- Starting execution: elapsed 0:00:00.004
--- Generating MIP model LAB2_MOEG
--- LAB2_MOEG.gms(95) 4 Mb
---   79 rows  37 columns  199 non-zeroes
--- Executing CPLEX (Solvelink=2): elapsed 0:00:00.008

IBM ILOG CPLEX   38.1.0 a1a3b545 Jan 31, 2022          WEI x86 64bit/MS Window

--- *** This solver runs with a demo license. No commercial use.
--- GMO setup time: 0.00s
--- GMO memory 0.51 Mb (peak 0.51 Mb)
--- Dictionary memory 0.00 Mb
--- Cplex 20.1.0.1 link memory 0.00 Mb (peak 0.01 Mb)
--- Starting Cplex

Version identifier: 20.1.0.1 | 2021-04-07 | 3a818710c
CPXPARAM_Advance                                 0
CPXPARAM_Threads                                 1
CPXPARAM_MIP_Display                             4
CPXPARAM_MIP_Pool_Capacity                       0
CPXPARAM_MIP_Tolerances_AbsMIPGap                0
Tried aggregator 1 time.
LP Presolve eliminated 43 rows and 1 columns.
Reduced LP has 35 rows, 36 columns, and 107 nonzeros.
Presolve time = 0.00 sec. (0.06 ticks)
Initializing dual steep norms . . .

Iteration log . . .
Iteration:     1   Scaled dual infeas =          1257.999998
Iteration:    11   Dual objective     =        337020.000000

--- LP status (1): optimal.
--- Cplex Time: 0.00sec (det. 0.18 ticks)


Optimal solution found
Objective:       310175.000000

--- Reading solution for model LAB2_MOEG
*** Status: Normal completion
--- Job LAB2_MOEG.gms Stop 03/20/22 14:19:45 elapsed 0:00:00.065
